# dyn_alloc_sce
baseline focus_on_high_profit_grounds TACs FMSY fishing_credits
# dyn_pop_sce
baseline
# biolsce
1
# fleetsce
1
# Frequency to apply growth (0:daily; 1:weekly; 2:monthly; 3:quarterly; 4:semester)
3
# Frequency to redispatch the pop (0:daily; 1:weekly; 2:monthly; 3:quarterly; 4:semester)
3
# a_graph
56
# nrow_coord
10140
# nrow_graph
57555
# a_port
9838
# grid res km
3
# is_individual_vessel_quotas
0
#  check all stocks before going fishing (otherwise, explicit pops only)
0
# Go Fishing DTree
GoFishing_Example.dt.csv
# Choose Ground DTree
ChooseGround_area_complex_tree_example.dt.csv
# Start Fishing DTree

# Change Ground DTree

# Stop Fishing DTree

# Change Port DTree

# Use Dtrees
1
#tariff_pop
0 1
#req_update_tariff_code (0: daily, 1: weekly, 2: monthly)
1
#arbitrary_breaks_for_tariff
-1 0.1 0.5 1 2 5 100000
#total_amount_credited
100000
#tariff_annual_ (percent change in HCR)
10
# banned metiers

